NAME : traveling-santa-2018-prime-paths.28698.tour
COMMENT : Length = 28698
COMMENT : Found by LKH [Keld Helsgaun] Sun Jun 12 20:00:29 2022
TYPE : TOUR
DIMENSION : 100
TOUR_SECTION
1
44
28
89
57
9
7
45
33
29
62
91
37
73
86
11
98
66
2
15
40
35
72
30
42
50
97
4
59
63
65
38
82
19
52
22
43
61
23
84
67
49
53
70
10
48
27
74
60
26
8
69
51
75
90
5
85
21
93
16
20
99
58
12
31
46
94
32
80
92
76
39
25
71
79
36
3
47
17
88
56
78
24
41
68
95
18
14
100
77
83
96
87
55
13
6
34
64
54
81
-1
EOF
